68
20
0 21 24 25 26 27 28 29 30 31 33 36 38 40 42 43 44 45 46 48 51 52 53 54 55 56 57 63 64 66 67
1 22 24 25 27 28 29 30 32 33 36 42 43 44 45 46 48 52 53 54 55 56 57 61 64 66 67
2 20 21 22 23 24 25 27 28 29 30 31 32 33 34 36 37 38 42 44 45 46 49 51 52 54 55 56 57 59 61 64 66 67
3 20 24 25 27 28 30 31 32 38 42 44 45 46 52 54 55 56 57 60 61 64 66 67
4 20 21 22 24 29 30 31 34 38 42 43 45 48 50 53 54 55 56 57 59 64 65 66 67
5 22 23 24 27 29 32 35 38 40 42 50 52 54 55 61 64 66
6 21 23 25 26 27 28 30 32 38 45 46 50 51 55 56 57 62 63 64 66 67
7 21 25 28 29 30 31 32 33 38 42 44 45 46 50 52 56 60 61 63 64 66 67
8 21 26 27 28 30 31 34 42 45 46 52 54 55 56 57 58 61 62 63 64 65
9 21 25 26 28 34 44 45 55 57 58 61 62 63 67
10 20 21 34 38 41 44 46 49 50 51 52 55 56 60 62 63 66
11 20 21 25 27 29 31 33 44 45 46 50 52 54 55 56 57 60 65 66
12 29 30 31 32 38 46 48 53 55 59 62 63 65 66
13 24 26 28 32 39 44 46 61 62 66
14 24 26 29 30 34 35 41 43 45 48 50 60 62 65
15 20 22 24 33 35 41 42 58 60 62 63 64 66
16 21 27 36 42 49 53 57 67
17 32 36 42 59 60
18 32 34 51
19 43 47 48 52 59 63
